p tw 40 82
e 0 14
e 0 28
e 0 29
e 0 38
e 1 6
e 1 18
e 1 37
e 2 4
e 2 15
e 2 27
e 2 28
e 2 30
e 2 31
e 3 24
e 3 36
e 3 39
e 4 23
e 4 25
e 4 26
e 5 17
e 5 20
e 5 28
e 5 39
e 6 15
e 6 17
e 6 27
e 7 25
e 7 26
e 7 29
e 7 35
e 8 22
e 8 36
e 9 10
e 9 21
e 9 23
e 10 12
e 10 13
e 10 14
e 10 15
e 10 20
e 10 26
e 10 30
e 10 35
e 11 12
e 12 15
e 13 30
e 13 31
e 14 35
e 15 21
e 15 26
e 15 33
e 15 36
e 15 38
e 15 39
e 16 21
e 16 27
e 17 20
e 17 29
e 17 32
e 17 37
e 17 39
e 18 20
e 18 28
e 19 22
e 19 28
e 19 36
e 23 30
e 23 31
e 24 36
e 25 26
e 25 27
e 25 32
e 25 37
e 26 35
e 27 38
e 28 36
e 29 31
e 29 37
e 31 32
e 31 37
e 34 36
e 35 39
